Minimize
M1 + M2
Subject To
x0,1 + x0,2 + x0,3 + x0,4 + x0,5 + x0,6 + x0,7 + x0,8 + x0,9 + x0,10 + x0,11 + x0,12 + x0,13 + x0,14 = 1
x1,13 + x1,14 = 1
x2,14 = 1
x3,15 = 1
x4,14 = 1
x5,13 = 1
x6,12 = 1
x7,11 = 1
x8,13 + x8,14 = 1
x9,14 = 1
x10,15 = 1
x11,14 = 1
x12,13 = 1
x13,12 = 1
x14,11 = 1
x15,10 = 1
x16,8 = 1
x17,13 + x17,14 = 1
x18,14 = 1
x19,15 = 1
x20,14 = 1
x21,13 = 1
x22,12 = 1
x23,11 = 1
x24,13 + x24,14 = 1
x25,14 = 1
x26,15 = 1
x27,14 = 1
x28,13 = 1
x29,12 = 1
x30,11 = 1
x31,10 = 1
x32,8 = 1
x33,9 + x33,10 + x33,11 + x33,12 + x33,13 + x33,14 + x33,15 = 1
x34,8 + x34,9 + x34,10 + x34,11 + x34,12 + x34,13 + x34,14 = 1
x35,6 = 1
x36,9 + x36,10 + x36,11 + x36,12 + x36,13 + x36,14 + x36,15 = 1
x37,8 + x37,9 + x37,10 + x37,11 + x37,12 + x37,13 + x37,14 = 1
x38,6 = 1
x39,5 = 1
x40,3 = 1
x41,1 = 1
x42,7 + x42,8 + x42,9 + x42,10 + x42,11 + x42,12 + x42,13 + x42,14 + x42,15 = 1
x43,6 + x43,7 + x43,8 + x43,9 + x43,10 + x43,11 + x43,12 + x43,13 + x43,14 = 1
x44,4 + x44,5 + x44,6 = 1
x45,7 + x45,8 + x45,9 + x45,10 + x45,11 + x45,12 + x45,13 + x45,14 + x45,15 = 1
x46,6 + x46,7 + x46,8 + x46,9 + x46,10 + x46,11 + x46,12 + x46,13 + x46,14 = 1
x47,4 + x47,5 + x47,6 = 1
x48,3 + x48,4 + x48,5 = 1
x49,1 + x49,2 + x49,3 = 1
x50,13 + x50,14 = 1
x51,14 = 1
x52,15 = 1
x53,14 = 1
x54,13 = 1
x55,12 = 1
x56,11 = 1
x57,13 + x57,14 = 1
x58,14 = 1
x59,15 = 1
x60,14 = 1
x61,13 = 1
x62,12 = 1
x63,11 = 1
x64,10 = 1
x65,8 = 1
x66,13 + x66,14 = 1
x67,14 = 1
x68,15 = 1
x69,14 = 1
x70,13 = 1
x71,12 = 1
x72,11 = 1
x73,13 + x73,14 = 1
x74,14 = 1
x75,15 = 1
x76,14 = 1
x77,13 = 1
x78,12 = 1
x79,11 = 1
x80,10 = 1
x81,8 = 1
x82,9 + x82,10 + x82,11 + x82,12 + x82,13 + x82,14 + x82,15 = 1
x83,8 + x83,9 + x83,10 + x83,11 + x83,12 + x83,13 + x83,14 = 1
x84,6 = 1
x85,9 + x85,10 + x85,11 + x85,12 + x85,13 + x85,14 + x85,15 = 1
x86,8 + x86,9 + x86,10 + x86,11 + x86,12 + x86,13 + x86,14 = 1
x87,6 = 1
x88,5 = 1
x89,3 = 1
x90,1 = 1
x91,7 + x91,8 + x91,9 + x91,10 + x91,11 + x91,12 + x91,13 + x91,14 + x91,15 = 1
x92,6 + x92,7 + x92,8 + x92,9 + x92,10 + x92,11 + x92,12 + x92,13 + x92,14 = 1
x93,4 + x93,5 + x93,6 = 1
x94,7 + x94,8 + x94,9 + x94,10 + x94,11 + x94,12 + x94,13 + x94,14 + x94,15 = 1
x95,6 + x95,7 + x95,8 + x95,9 + x95,10 + x95,11 + x95,12 + x95,13 + x95,14 = 1
x96,4 + x96,5 + x96,6 = 1
x97,3 + x97,4 + x97,5 = 1
x98,1 + x98,2 + x98,3 = 1
x99,13 + x99,14 = 1
x100,14 = 1
x101,15 = 1
x102,14 = 1
x103,13 = 1
x104,12 = 1
x105,11 = 1
x106,13 + x106,14 = 1
x107,14 = 1
x108,15 = 1
x109,14 = 1
x110,13 = 1
x111,12 = 1
x112,11 = 1
x113,10 = 1
x114,8 = 1
x115,13 + x115,14 = 1
x116,14 = 1
x117,15 = 1
x118,14 = 1
x119,13 = 1
x120,12 = 1
x121,11 = 1
x122,13 + x122,14 = 1
x123,14 = 1
x124,15 = 1
x125,14 = 1
x126,13 = 1
x127,12 = 1
x128,11 = 1
x129,10 = 1
x130,8 = 1
x131,9 + x131,10 + x131,11 + x131,12 + x131,13 + x131,14 + x131,15 = 1
x132,8 + x132,9 + x132,10 + x132,11 + x132,12 + x132,13 + x132,14 = 1
x133,6 = 1
x134,9 + x134,10 + x134,11 + x134,12 + x134,13 + x134,14 + x134,15 = 1
x135,8 + x135,9 + x135,10 + x135,11 + x135,12 + x135,13 + x135,14 = 1
x136,6 = 1
x137,5 = 1
x138,3 = 1
x139,1 = 1
x140,7 + x140,8 + x140,9 + x140,10 + x140,11 + x140,12 + x140,13 + x140,14 + x140,15 = 1
x141,6 + x141,7 + x141,8 + x141,9 + x141,10 + x141,11 + x141,12 + x141,13 + x141,14 = 1
x142,4 + x142,5 + x142,6 = 1
x143,7 + x143,8 + x143,9 + x143,10 + x143,11 + x143,12 + x143,13 + x143,14 + x143,15 = 1
x144,6 + x144,7 + x144,8 + x144,9 + x144,10 + x144,11 + x144,12 + x144,13 + x144,14 = 1
x145,4 + x145,5 + x145,6 = 1
x146,3 + x146,4 + x146,5 = 1
x147,1 + x147,2 + x147,3 = 1
x148,13 + x148,14 = 1
x149,14 = 1
x150,15 = 1
x151,14 = 1
x152,13 = 1
x153,12 = 1
x154,11 = 1
x155,13 + x155,14 = 1
x156,14 = 1
x157,15 = 1
x158,14 = 1
x159,13 = 1
x160,12 = 1
x161,11 = 1
x162,10 = 1
x163,8 = 1
x164,13 + x164,14 = 1
x165,14 = 1
x166,15 = 1
x167,14 = 1
x168,13 = 1
x169,12 = 1
x170,11 = 1
x171,13 + x171,14 = 1
x172,14 = 1
x173,15 = 1
x174,14 = 1
x175,13 = 1
x176,12 = 1
x177,11 = 1
x178,10 = 1
x179,8 = 1
x180,9 + x180,10 + x180,11 + x180,12 + x180,13 + x180,14 + x180,15 = 1
x181,8 + x181,9 + x181,10 + x181,11 + x181,12 + x181,13 + x181,14 = 1
x182,6 = 1
x183,9 + x183,10 + x183,11 + x183,12 + x183,13 + x183,14 + x183,15 = 1
x184,8 + x184,9 + x184,10 + x184,11 + x184,12 + x184,13 + x184,14 = 1
x185,6 = 1
x186,5 = 1
x187,3 = 1
x188,1 = 1
x189,7 + x189,8 + x189,9 + x189,10 + x189,11 + x189,12 + x189,13 + x189,14 + x189,15 = 1
x190,6 + x190,7 + x190,8 + x190,9 + x190,10 + x190,11 + x190,12 + x190,13 + x190,14 = 1
x191,4 + x191,5 + x191,6 = 1
x192,7 + x192,8 + x192,9 + x192,10 + x192,11 + x192,12 + x192,13 + x192,14 + x192,15 = 1
x193,6 + x193,7 + x193,8 + x193,9 + x193,10 + x193,11 + x193,12 + x193,13 + x193,14 = 1
x194,4 + x194,5 + x194,6 = 1
x195,3 + x195,4 + x195,5 = 1
x196,1 + x196,2 + x196,3 = 1
x0,1 + x41,1 + x49,1 + x90,1 + x98,1 + x139,1 + x147,1 + x188,1 + x196,1 - M1 <= 0
x0,2 + x0,1 + x41,2 + x41,1 + x49,2 + x49,1 + x90,2 + x90,1 + x98,2 + x98,1 + x139,2 + x139,1 + x147,2 + x147,1 + x188,2 + x188,1 + x196,2 + x196,1 - M1 <= 0
x48,3 + x97,3 + x146,3 + x195,3 - M2 <= 0
x0,3 + x0,2 + x40,3 + x40,2 + x49,3 + x49,2 + x89,3 + x89,2 + x98,3 + x98,2 + x138,3 + x138,2 + x147,3 + x147,2 + x187,3 + x187,2 + x196,3 + x196,2 - M1 <= 0
x48,4 + x97,4 + x146,4 + x195,4 - M2 <= 0
x0,4 + x0,3 + x40,4 + x40,3 + x44,4 + x44,3 + x47,4 + x47,3 + x49,4 + x49,3 + x89,4 + x89,3 + x93,4 + x93,3 + x96,4 + x96,3 + x98,4 + x98,3 + x138,4 + x138,3 + x142,4 + x142,3 + x145,4 + x145,3 + x147,4 + x147,3 + x187,4 + x187,3 + x191,4 + x191,3 + x194,4 + x194,3 + x196,4 + x196,3 - M1 <= 0
x39,5 + x48,5 + x88,5 + x97,5 + x137,5 + x146,5 + x186,5 + x195,5 - M2 <= 0
x0,5 + x0,4 + x44,5 + x44,4 + x47,5 + x47,4 + x93,5 + x93,4 + x96,5 + x96,4 + x142,5 + x142,4 + x145,5 + x145,4 + x191,5 + x191,4 + x194,5 + x194,4 - M1 <= 0
x43,6 + x46,6 + x92,6 + x95,6 + x141,6 + x144,6 + x190,6 + x193,6 - M2 <= 0
x0,6 + x0,5 + x35,6 + x35,5 + x38,6 + x38,5 + x44,6 + x44,5 + x47,6 + x47,5 + x84,6 + x84,5 + x87,6 + x87,5 + x93,6 + x93,5 + x96,6 + x96,5 + x133,6 + x133,5 + x136,6 + x136,5 + x142,6 + x142,5 + x145,6 + x145,5 + x182,6 + x182,5 + x185,6 + x185,5 + x191,6 + x191,5 + x194,6 + x194,5 - M1 <= 0
x42,7 + x43,7 + x45,7 + x46,7 + x91,7 + x92,7 + x94,7 + x95,7 + x140,7 + x141,7 + x143,7 + x144,7 + x189,7 + x190,7 + x192,7 + x193,7 - M2 <= 0
x0,7 + x0,6 + x35,7 + x35,6 + x38,7 + x38,6 + x44,7 + x44,6 + x47,7 + x47,6 + x84,7 + x84,6 + x87,7 + x87,6 + x93,7 + x93,6 + x96,7 + x96,6 + x133,7 + x133,6 + x136,7 + x136,6 + x142,7 + x142,6 + x145,7 + x145,6 + x182,7 + x182,6 + x185,7 + x185,6 + x191,7 + x191,6 + x194,7 + x194,6 - M1 <= 0
x34,8 + x37,8 + x42,8 + x43,8 + x45,8 + x46,8 + x83,8 + x86,8 + x91,8 + x92,8 + x94,8 + x95,8 + x132,8 + x135,8 + x140,8 + x141,8 + x143,8 + x144,8 + x181,8 + x184,8 + x189,8 + x190,8 + x192,8 + x193,8 - M2 <= 0
x0,8 + x0,7 + x16,8 + x16,7 + x32,8 + x32,7 + x65,8 + x65,7 + x81,8 + x81,7 + x114,8 + x114,7 + x130,8 + x130,7 + x163,8 + x163,7 + x179,8 + x179,7 - M1 <= 0
x33,9 + x34,9 + x36,9 + x37,9 + x42,9 + x43,9 + x45,9 + x46,9 + x82,9 + x83,9 + x85,9 + x86,9 + x91,9 + x92,9 + x94,9 + x95,9 + x131,9 + x132,9 + x134,9 + x135,9 + x140,9 + x141,9 + x143,9 + x144,9 + x180,9 + x181,9 + x183,9 + x184,9 + x189,9 + x190,9 + x192,9 + x193,9 - M2 <= 0
x0,9 + x0,8 + x16,9 + x16,8 + x32,9 + x32,8 + x65,9 + x65,8 + x81,9 + x81,8 + x114,9 + x114,8 + x130,9 + x130,8 + x163,9 + x163,8 + x179,9 + x179,8 - M1 <= 0
x15,10 + x31,10 + x33,10 + x34,10 + x36,10 + x37,10 + x42,10 + x43,10 + x45,10 + x46,10 + x64,10 + x80,10 + x82,10 + x83,10 + x85,10 + x86,10 + x91,10 + x92,10 + x94,10 + x95,10 + x113,10 + x129,10 + x131,10 + x132,10 + x134,10 + x135,10 + x140,10 + x141,10 + x143,10 + x144,10 + x162,10 + x178,10 + x180,10 + x181,10 + x183,10 + x184,10 + x189,10 + x190,10 + x192,10 + x193,10 - M2 <= 0
x7,11 + x14,11 + x23,11 + x30,11 + x33,11 + x34,11 + x36,11 + x37,11 + x42,11 + x43,11 + x45,11 + x46,11 + x56,11 + x63,11 + x72,11 + x79,11 + x82,11 + x83,11 + x85,11 + x86,11 + x91,11 + x92,11 + x94,11 + x95,11 + x105,11 + x112,11 + x121,11 + x128,11 + x131,11 + x132,11 + x134,11 + x135,11 + x140,11 + x141,11 + x143,11 + x144,11 + x154,11 + x161,11 + x170,11 + x177,11 + x180,11 + x181,11 + x183,11 + x184,11 + x189,11 + x190,11 + x192,11 + x193,11 - M2 <= 0
x6,12 + x13,12 + x22,12 + x29,12 + x33,12 + x34,12 + x36,12 + x37,12 + x42,12 + x43,12 + x45,12 + x46,12 + x55,12 + x62,12 + x71,12 + x78,12 + x82,12 + x83,12 + x85,12 + x86,12 + x91,12 + x92,12 + x94,12 + x95,12 + x104,12 + x111,12 + x120,12 + x127,12 + x131,12 + x132,12 + x134,12 + x135,12 + x140,12 + x141,12 + x143,12 + x144,12 + x153,12 + x160,12 + x169,12 + x176,12 + x180,12 + x181,12 + x183,12 + x184,12 + x189,12 + x190,12 + x192,12 + x193,12 - M2 <= 0
x5,13 + x12,13 + x21,13 + x28,13 + x33,13 + x34,13 + x36,13 + x37,13 + x42,13 + x43,13 + x45,13 + x46,13 + x54,13 + x61,13 + x70,13 + x77,13 + x82,13 + x83,13 + x85,13 + x86,13 + x91,13 + x92,13 + x94,13 + x95,13 + x103,13 + x110,13 + x119,13 + x126,13 + x131,13 + x132,13 + x134,13 + x135,13 + x140,13 + x141,13 + x143,13 + x144,13 + x152,13 + x159,13 + x168,13 + x175,13 + x180,13 + x181,13 + x183,13 + x184,13 + x189,13 + x190,13 + x192,13 + x193,13 - M2 <= 0
x0,13 + x0,12 + x1,13 + x1,12 + x8,13 + x8,12 + x17,13 + x17,12 + x24,13 + x24,12 + x50,13 + x50,12 + x57,13 + x57,12 + x66,13 + x66,12 + x73,13 + x73,12 + x99,13 + x99,12 + x106,13 + x106,12 + x115,13 + x115,12 + x122,13 + x122,12 + x148,13 + x148,12 + x155,13 + x155,12 + x164,13 + x164,12 + x171,13 + x171,12 - M1 <= 0
x4,14 + x11,14 + x20,14 + x27,14 + x33,14 + x34,14 + x36,14 + x37,14 + x42,14 + x43,14 + x45,14 + x46,14 + x53,14 + x60,14 + x69,14 + x76,14 + x82,14 + x83,14 + x85,14 + x86,14 + x91,14 + x92,14 + x94,14 + x95,14 + x102,14 + x109,14 + x118,14 + x125,14 + x131,14 + x132,14 + x134,14 + x135,14 + x140,14 + x141,14 + x143,14 + x144,14 + x151,14 + x158,14 + x167,14 + x174,14 + x180,14 + x181,14 + x183,14 + x184,14 + x189,14 + x190,14 + x192,14 + x193,14 - M2 <= 0
x0,14 + x0,13 + x1,14 + x1,13 + x2,14 + x2,13 + x8,14 + x8,13 + x9,14 + x9,13 + x17,14 + x17,13 + x18,14 + x18,13 + x24,14 + x24,13 + x25,14 + x25,13 + x50,14 + x50,13 + x51,14 + x51,13 + x57,14 + x57,13 + x58,14 + x58,13 + x66,14 + x66,13 + x67,14 + x67,13 + x73,14 + x73,13 + x74,14 + x74,13 + x99,14 + x99,13 + x100,14 + x100,13 + x106,14 + x106,13 + x107,14 + x107,13 + x115,14 + x115,13 + x116,14 + x116,13 + x122,14 + x122,13 + x123,14 + x123,13 + x148,14 + x148,13 + x149,14 + x149,13 + x155,14 + x155,13 + x156,14 + x156,13 + x164,14 + x164,13 + x165,14 + x165,13 + x171,14 + x171,13 + x172,14 + x172,13 - M1 <= 0
x3,15 + x10,15 + x19,15 + x26,15 + x33,15 + x36,15 + x42,15 + x45,15 + x52,15 + x59,15 + x68,15 + x75,15 + x82,15 + x85,15 + x91,15 + x94,15 + x101,15 + x108,15 + x117,15 + x124,15 + x131,15 + x134,15 + x140,15 + x143,15 + x150,15 + x157,15 + x166,15 + x173,15 + x180,15 + x183,15 + x189,15 + x192,15 - M2 <= 0
x0,15 + x0,14 + x1,15 + x1,14 + x2,15 + x2,14 + x8,15 + x8,14 + x9,15 + x9,14 + x17,15 + x17,14 + x18,15 + x18,14 + x24,15 + x24,14 + x25,15 + x25,14 + x50,15 + x50,14 + x51,15 + x51,14 + x57,15 + x57,14 + x58,15 + x58,14 + x66,15 + x66,14 + x67,15 + x67,14 + x73,15 + x73,14 + x74,15 + x74,14 + x99,15 + x99,14 + x100,15 + x100,14 + x106,15 + x106,14 + x107,15 + x107,14 + x115,15 + x115,14 + x116,15 + x116,14 + x122,15 + x122,14 + x123,15 + x123,14 + x148,15 + x148,14 + x149,15 + x149,14 + x155,15 + x155,14 + x156,15 + x156,14 + x164,15 + x164,14 + x165,15 + x165,14 + x171,15 + x171,14 + x172,15 + x172,14 - M1 <= 0
14 x4,14 - 15 x3,15 <= -1
13 x5,13 - 14 x2,14 <= -1
13 x5,13 - 14 x4,14 <= -1
12 x6,12 - 13 x1,13 - 14 x1,14 <= -1
12 x6,12 - 13 x5,13 <= -1
11 x7,11 - 12 x6,12 <= -1
14 x11,14 - 15 x10,15 <= -1
13 x12,13 - 14 x9,14 <= -1
13 x12,13 - 14 x11,14 <= -1
12 x13,12 - 13 x8,13 - 14 x8,14 <= -1
12 x13,12 - 13 x12,13 <= -1
11 x14,11 - 12 x13,12 <= -1
10 x15,10 - 11 x7,11 <= -1
10 x15,10 - 11 x14,11 <= -1
8 x16,8 - 10 x15,10 <= -2
14 x20,14 - 15 x19,15 <= -1
13 x21,13 - 14 x18,14 <= -1
13 x21,13 - 14 x20,14 <= -1
12 x22,12 - 13 x17,13 - 14 x17,14 <= -1
12 x22,12 - 13 x21,13 <= -1
11 x23,11 - 12 x22,12 <= -1
14 x27,14 - 15 x26,15 <= -1
13 x28,13 - 14 x25,14 <= -1
13 x28,13 - 14 x27,14 <= -1
12 x29,12 - 13 x24,13 - 14 x24,14 <= -1
12 x29,12 - 13 x28,13 <= -1
11 x30,11 - 12 x29,12 <= -1
10 x31,10 - 11 x23,11 <= -1
10 x31,10 - 11 x30,11 <= -1
8 x32,8 - 10 x31,10 <= -2
8 x34,8 + 9 x34,9 + 10 x34,10 + 11 x34,11 + 12 x34,12 + 13 x34,13 + 14 x34,14 - 9 x33,9 - 10 x33,10 - 11 x33,11 - 12 x33,12 - 13 x33,13 - 14 x33,14 - 15 x33,15 <= -1
6 x35,6 - 8 x16,8 <= -2
6 x35,6 - 8 x34,8 - 9 x34,9 - 10 x34,10 - 11 x34,11 - 12 x34,12 - 13 x34,13 - 14 x34,14 <= -2
8 x37,8 + 9 x37,9 + 10 x37,10 + 11 x37,11 + 12 x37,12 + 13 x37,13 + 14 x37,14 - 9 x36,9 - 10 x36,10 - 11 x36,11 - 12 x36,12 - 13 x36,13 - 14 x36,14 - 15 x36,15 <= -1
6 x38,6 - 8 x32,8 <= -2
6 x38,6 - 8 x37,8 - 9 x37,9 - 10 x37,10 - 11 x37,11 - 12 x37,12 - 13 x37,13 - 14 x37,14 <= -2
5 x39,5 - 6 x35,6 <= -1
5 x39,5 - 6 x38,6 <= -1
3 x40,3 - 5 x39,5 <= -2
1 x41,1 - 3 x40,3 <= -2
6 x43,6 + 7 x43,7 + 8 x43,8 + 9 x43,9 + 10 x43,10 + 11 x43,11 + 12 x43,12 + 13 x43,13 + 14 x43,14 - 7 x42,7 - 8 x42,8 - 9 x42,9 - 10 x42,10 - 11 x42,11 - 12 x42,12 - 13 x42,13 - 14 x42,14 - 15 x42,15 <= -1
4 x44,4 + 5 x44,5 + 6 x44,6 - 8 x32,8 <= -2
4 x44,4 + 5 x44,5 + 6 x44,6 - 6 x43,6 - 7 x43,7 - 8 x43,8 - 9 x43,9 - 10 x43,10 - 11 x43,11 - 12 x43,12 - 13 x43,13 - 14 x43,14 <= -2
6 x46,6 + 7 x46,7 + 8 x46,8 + 9 x46,9 + 10 x46,10 + 11 x46,11 + 12 x46,12 + 13 x46,13 + 14 x46,14 - 7 x45,7 - 8 x45,8 - 9 x45,9 - 10 x45,10 - 11 x45,11 - 12 x45,12 - 13 x45,13 - 14 x45,14 - 15 x45,15 <= -1
4 x47,4 + 5 x47,5 + 6 x47,6 - 8 x16,8 <= -2
4 x47,4 + 5 x47,5 + 6 x47,6 - 6 x46,6 - 7 x46,7 - 8 x46,8 - 9 x46,9 - 10 x46,10 - 11 x46,11 - 12 x46,12 - 13 x46,13 - 14 x46,14 <= -2
3 x48,3 + 4 x48,4 + 5 x48,5 - 4 x44,4 - 5 x44,5 - 6 x44,6 <= -1
3 x48,3 + 4 x48,4 + 5 x48,5 - 4 x47,4 - 5 x47,5 - 6 x47,6 <= -1
1 x49,1 + 2 x49,2 + 3 x49,3 - 3 x48,3 - 4 x48,4 - 5 x48,5 <= -2
14 x53,14 - 15 x52,15 <= -1
13 x54,13 - 14 x51,14 <= -1
13 x54,13 - 14 x53,14 <= -1
12 x55,12 - 13 x50,13 - 14 x50,14 <= -1
12 x55,12 - 13 x54,13 <= -1
11 x56,11 - 12 x55,12 <= -1
14 x60,14 - 15 x59,15 <= -1
13 x61,13 - 14 x58,14 <= -1
13 x61,13 - 14 x60,14 <= -1
12 x62,12 - 13 x57,13 - 14 x57,14 <= -1
12 x62,12 - 13 x61,13 <= -1
11 x63,11 - 12 x62,12 <= -1
10 x64,10 - 11 x56,11 <= -1
10 x64,10 - 11 x63,11 <= -1
8 x65,8 - 10 x64,10 <= -2
14 x69,14 - 15 x68,15 <= -1
13 x70,13 - 14 x67,14 <= -1
13 x70,13 - 14 x69,14 <= -1
12 x71,12 - 13 x66,13 - 14 x66,14 <= -1
12 x71,12 - 13 x70,13 <= -1
11 x72,11 - 12 x71,12 <= -1
14 x76,14 - 15 x75,15 <= -1
13 x77,13 - 14 x74,14 <= -1
13 x77,13 - 14 x76,14 <= -1
12 x78,12 - 13 x73,13 - 14 x73,14 <= -1
12 x78,12 - 13 x77,13 <= -1
11 x79,11 - 12 x78,12 <= -1
10 x80,10 - 11 x72,11 <= -1
10 x80,10 - 11 x79,11 <= -1
8 x81,8 - 10 x80,10 <= -2
8 x83,8 + 9 x83,9 + 10 x83,10 + 11 x83,11 + 12 x83,12 + 13 x83,13 + 14 x83,14 - 9 x82,9 - 10 x82,10 - 11 x82,11 - 12 x82,12 - 13 x82,13 - 14 x82,14 - 15 x82,15 <= -1
6 x84,6 - 8 x65,8 <= -2
6 x84,6 - 8 x83,8 - 9 x83,9 - 10 x83,10 - 11 x83,11 - 12 x83,12 - 13 x83,13 - 14 x83,14 <= -2
8 x86,8 + 9 x86,9 + 10 x86,10 + 11 x86,11 + 12 x86,12 + 13 x86,13 + 14 x86,14 - 9 x85,9 - 10 x85,10 - 11 x85,11 - 12 x85,12 - 13 x85,13 - 14 x85,14 - 15 x85,15 <= -1
6 x87,6 - 8 x81,8 <= -2
6 x87,6 - 8 x86,8 - 9 x86,9 - 10 x86,10 - 11 x86,11 - 12 x86,12 - 13 x86,13 - 14 x86,14 <= -2
5 x88,5 - 6 x84,6 <= -1
5 x88,5 - 6 x87,6 <= -1
3 x89,3 - 5 x88,5 <= -2
1 x90,1 - 3 x89,3 <= -2
6 x92,6 + 7 x92,7 + 8 x92,8 + 9 x92,9 + 10 x92,10 + 11 x92,11 + 12 x92,12 + 13 x92,13 + 14 x92,14 - 7 x91,7 - 8 x91,8 - 9 x91,9 - 10 x91,10 - 11 x91,11 - 12 x91,12 - 13 x91,13 - 14 x91,14 - 15 x91,15 <= -1
4 x93,4 + 5 x93,5 + 6 x93,6 - 8 x81,8 <= -2
4 x93,4 + 5 x93,5 + 6 x93,6 - 6 x92,6 - 7 x92,7 - 8 x92,8 - 9 x92,9 - 10 x92,10 - 11 x92,11 - 12 x92,12 - 13 x92,13 - 14 x92,14 <= -2
6 x95,6 + 7 x95,7 + 8 x95,8 + 9 x95,9 + 10 x95,10 + 11 x95,11 + 12 x95,12 + 13 x95,13 + 14 x95,14 - 7 x94,7 - 8 x94,8 - 9 x94,9 - 10 x94,10 - 11 x94,11 - 12 x94,12 - 13 x94,13 - 14 x94,14 - 15 x94,15 <= -1
4 x96,4 + 5 x96,5 + 6 x96,6 - 8 x65,8 <= -2
4 x96,4 + 5 x96,5 + 6 x96,6 - 6 x95,6 - 7 x95,7 - 8 x95,8 - 9 x95,9 - 10 x95,10 - 11 x95,11 - 12 x95,12 - 13 x95,13 - 14 x95,14 <= -2
3 x97,3 + 4 x97,4 + 5 x97,5 - 4 x93,4 - 5 x93,5 - 6 x93,6 <= -1
3 x97,3 + 4 x97,4 + 5 x97,5 - 4 x96,4 - 5 x96,5 - 6 x96,6 <= -1
1 x98,1 + 2 x98,2 + 3 x98,3 - 3 x97,3 - 4 x97,4 - 5 x97,5 <= -2
14 x102,14 - 15 x101,15 <= -1
13 x103,13 - 14 x100,14 <= -1
13 x103,13 - 14 x102,14 <= -1
12 x104,12 - 13 x99,13 - 14 x99,14 <= -1
12 x104,12 - 13 x103,13 <= -1
11 x105,11 - 12 x104,12 <= -1
14 x109,14 - 15 x108,15 <= -1
13 x110,13 - 14 x107,14 <= -1
13 x110,13 - 14 x109,14 <= -1
12 x111,12 - 13 x106,13 - 14 x106,14 <= -1
12 x111,12 - 13 x110,13 <= -1
11 x112,11 - 12 x111,12 <= -1
10 x113,10 - 11 x105,11 <= -1
10 x113,10 - 11 x112,11 <= -1
8 x114,8 - 10 x113,10 <= -2
14 x118,14 - 15 x117,15 <= -1
13 x119,13 - 14 x116,14 <= -1
13 x119,13 - 14 x118,14 <= -1
12 x120,12 - 13 x115,13 - 14 x115,14 <= -1
12 x120,12 - 13 x119,13 <= -1
11 x121,11 - 12 x120,12 <= -1
14 x125,14 - 15 x124,15 <= -1
13 x126,13 - 14 x123,14 <= -1
13 x126,13 - 14 x125,14 <= -1
12 x127,12 - 13 x122,13 - 14 x122,14 <= -1
12 x127,12 - 13 x126,13 <= -1
11 x128,11 - 12 x127,12 <= -1
10 x129,10 - 11 x121,11 <= -1
10 x129,10 - 11 x128,11 <= -1
8 x130,8 - 10 x129,10 <= -2
8 x132,8 + 9 x132,9 + 10 x132,10 + 11 x132,11 + 12 x132,12 + 13 x132,13 + 14 x132,14 - 9 x131,9 - 10 x131,10 - 11 x131,11 - 12 x131,12 - 13 x131,13 - 14 x131,14 - 15 x131,15 <= -1
6 x133,6 - 8 x114,8 <= -2
6 x133,6 - 8 x132,8 - 9 x132,9 - 10 x132,10 - 11 x132,11 - 12 x132,12 - 13 x132,13 - 14 x132,14 <= -2
8 x135,8 + 9 x135,9 + 10 x135,10 + 11 x135,11 + 12 x135,12 + 13 x135,13 + 14 x135,14 - 9 x134,9 - 10 x134,10 - 11 x134,11 - 12 x134,12 - 13 x134,13 - 14 x134,14 - 15 x134,15 <= -1
6 x136,6 - 8 x130,8 <= -2
6 x136,6 - 8 x135,8 - 9 x135,9 - 10 x135,10 - 11 x135,11 - 12 x135,12 - 13 x135,13 - 14 x135,14 <= -2
5 x137,5 - 6 x133,6 <= -1
5 x137,5 - 6 x136,6 <= -1
3 x138,3 - 5 x137,5 <= -2
1 x139,1 - 3 x138,3 <= -2
6 x141,6 + 7 x141,7 + 8 x141,8 + 9 x141,9 + 10 x141,10 + 11 x141,11 + 12 x141,12 + 13 x141,13 + 14 x141,14 - 7 x140,7 - 8 x140,8 - 9 x140,9 - 10 x140,10 - 11 x140,11 - 12 x140,12 - 13 x140,13 - 14 x140,14 - 15 x140,15 <= -1
4 x142,4 + 5 x142,5 + 6 x142,6 - 8 x130,8 <= -2
4 x142,4 + 5 x142,5 + 6 x142,6 - 6 x141,6 - 7 x141,7 - 8 x141,8 - 9 x141,9 - 10 x141,10 - 11 x141,11 - 12 x141,12 - 13 x141,13 - 14 x141,14 <= -2
6 x144,6 + 7 x144,7 + 8 x144,8 + 9 x144,9 + 10 x144,10 + 11 x144,11 + 12 x144,12 + 13 x144,13 + 14 x144,14 - 7 x143,7 - 8 x143,8 - 9 x143,9 - 10 x143,10 - 11 x143,11 - 12 x143,12 - 13 x143,13 - 14 x143,14 - 15 x143,15 <= -1
4 x145,4 + 5 x145,5 + 6 x145,6 - 8 x114,8 <= -2
4 x145,4 + 5 x145,5 + 6 x145,6 - 6 x144,6 - 7 x144,7 - 8 x144,8 - 9 x144,9 - 10 x144,10 - 11 x144,11 - 12 x144,12 - 13 x144,13 - 14 x144,14 <= -2
3 x146,3 + 4 x146,4 + 5 x146,5 - 4 x142,4 - 5 x142,5 - 6 x142,6 <= -1
3 x146,3 + 4 x146,4 + 5 x146,5 - 4 x145,4 - 5 x145,5 - 6 x145,6 <= -1
1 x147,1 + 2 x147,2 + 3 x147,3 - 3 x146,3 - 4 x146,4 - 5 x146,5 <= -2
14 x151,14 - 15 x150,15 <= -1
13 x152,13 - 14 x149,14 <= -1
13 x152,13 - 14 x151,14 <= -1
12 x153,12 - 13 x148,13 - 14 x148,14 <= -1
12 x153,12 - 13 x152,13 <= -1
11 x154,11 - 12 x153,12 <= -1
14 x158,14 - 15 x157,15 <= -1
13 x159,13 - 14 x156,14 <= -1
13 x159,13 - 14 x158,14 <= -1
12 x160,12 - 13 x155,13 - 14 x155,14 <= -1
12 x160,12 - 13 x159,13 <= -1
11 x161,11 - 12 x160,12 <= -1
10 x162,10 - 11 x154,11 <= -1
10 x162,10 - 11 x161,11 <= -1
8 x163,8 - 10 x162,10 <= -2
14 x167,14 - 15 x166,15 <= -1
13 x168,13 - 14 x165,14 <= -1
13 x168,13 - 14 x167,14 <= -1
12 x169,12 - 13 x164,13 - 14 x164,14 <= -1
12 x169,12 - 13 x168,13 <= -1
11 x170,11 - 12 x169,12 <= -1
14 x174,14 - 15 x173,15 <= -1
13 x175,13 - 14 x172,14 <= -1
13 x175,13 - 14 x174,14 <= -1
12 x176,12 - 13 x171,13 - 14 x171,14 <= -1
12 x176,12 - 13 x175,13 <= -1
11 x177,11 - 12 x176,12 <= -1
10 x178,10 - 11 x170,11 <= -1
10 x178,10 - 11 x177,11 <= -1
8 x179,8 - 10 x178,10 <= -2
8 x181,8 + 9 x181,9 + 10 x181,10 + 11 x181,11 + 12 x181,12 + 13 x181,13 + 14 x181,14 - 9 x180,9 - 10 x180,10 - 11 x180,11 - 12 x180,12 - 13 x180,13 - 14 x180,14 - 15 x180,15 <= -1
6 x182,6 - 8 x163,8 <= -2
6 x182,6 - 8 x181,8 - 9 x181,9 - 10 x181,10 - 11 x181,11 - 12 x181,12 - 13 x181,13 - 14 x181,14 <= -2
8 x184,8 + 9 x184,9 + 10 x184,10 + 11 x184,11 + 12 x184,12 + 13 x184,13 + 14 x184,14 - 9 x183,9 - 10 x183,10 - 11 x183,11 - 12 x183,12 - 13 x183,13 - 14 x183,14 - 15 x183,15 <= -1
6 x185,6 - 8 x179,8 <= -2
6 x185,6 - 8 x184,8 - 9 x184,9 - 10 x184,10 - 11 x184,11 - 12 x184,12 - 13 x184,13 - 14 x184,14 <= -2
5 x186,5 - 6 x182,6 <= -1
5 x186,5 - 6 x185,6 <= -1
3 x187,3 - 5 x186,5 <= -2
1 x188,1 - 3 x187,3 <= -2
6 x190,6 + 7 x190,7 + 8 x190,8 + 9 x190,9 + 10 x190,10 + 11 x190,11 + 12 x190,12 + 13 x190,13 + 14 x190,14 - 7 x189,7 - 8 x189,8 - 9 x189,9 - 10 x189,10 - 11 x189,11 - 12 x189,12 - 13 x189,13 - 14 x189,14 - 15 x189,15 <= -1
4 x191,4 + 5 x191,5 + 6 x191,6 - 8 x179,8 <= -2
4 x191,4 + 5 x191,5 + 6 x191,6 - 6 x190,6 - 7 x190,7 - 8 x190,8 - 9 x190,9 - 10 x190,10 - 11 x190,11 - 12 x190,12 - 13 x190,13 - 14 x190,14 <= -2
6 x193,6 + 7 x193,7 + 8 x193,8 + 9 x193,9 + 10 x193,10 + 11 x193,11 + 12 x193,12 + 13 x193,13 + 14 x193,14 - 7 x192,7 - 8 x192,8 - 9 x192,9 - 10 x192,10 - 11 x192,11 - 12 x192,12 - 13 x192,13 - 14 x192,14 - 15 x192,15 <= -1
4 x194,4 + 5 x194,5 + 6 x194,6 - 8 x163,8 <= -2
4 x194,4 + 5 x194,5 + 6 x194,6 - 6 x193,6 - 7 x193,7 - 8 x193,8 - 9 x193,9 - 10 x193,10 - 11 x193,11 - 12 x193,12 - 13 x193,13 - 14 x193,14 <= -2
3 x195,3 + 4 x195,4 + 5 x195,5 - 4 x191,4 - 5 x191,5 - 6 x191,6 <= -1
3 x195,3 + 4 x195,4 + 5 x195,5 - 4 x194,4 - 5 x194,5 - 6 x194,6 <= -1
1 x196,1 + 2 x196,2 + 3 x196,3 - 3 x195,3 - 4 x195,4 - 5 x195,5 <= -2
Bounds
0 <= x0,1 <= 1
0 <= x0,2 <= 1
0 <= x0,3 <= 1
0 <= x0,4 <= 1
0 <= x0,5 <= 1
0 <= x0,6 <= 1
0 <= x0,7 <= 1
0 <= x0,8 <= 1
0 <= x0,9 <= 1
0 <= x0,10 <= 1
0 <= x0,11 <= 1
0 <= x0,12 <= 1
0 <= x0,13 <= 1
0 <= x0,14 <= 1
0 <= x1,13 <= 1
0 <= x1,14 <= 1
0 <= x2,14 <= 1
0 <= x3,15 <= 1
0 <= x4,14 <= 1
0 <= x5,13 <= 1
0 <= x6,12 <= 1
0 <= x7,11 <= 1
0 <= x8,13 <= 1
0 <= x8,14 <= 1
0 <= x9,14 <= 1
0 <= x10,15 <= 1
0 <= x11,14 <= 1
0 <= x12,13 <= 1
0 <= x13,12 <= 1
0 <= x14,11 <= 1
0 <= x15,10 <= 1
0 <= x16,8 <= 1
0 <= x17,13 <= 1
0 <= x17,14 <= 1
0 <= x18,14 <= 1
0 <= x19,15 <= 1
0 <= x20,14 <= 1
0 <= x21,13 <= 1
0 <= x22,12 <= 1
0 <= x23,11 <= 1
0 <= x24,13 <= 1
0 <= x24,14 <= 1
0 <= x25,14 <= 1
0 <= x26,15 <= 1
0 <= x27,14 <= 1
0 <= x28,13 <= 1
0 <= x29,12 <= 1
0 <= x30,11 <= 1
0 <= x31,10 <= 1
0 <= x32,8 <= 1
0 <= x33,9 <= 1
0 <= x33,10 <= 1
0 <= x33,11 <= 1
0 <= x33,12 <= 1
0 <= x33,13 <= 1
0 <= x33,14 <= 1
0 <= x33,15 <= 1
0 <= x34,8 <= 1
0 <= x34,9 <= 1
0 <= x34,10 <= 1
0 <= x34,11 <= 1
0 <= x34,12 <= 1
0 <= x34,13 <= 1
0 <= x34,14 <= 1
0 <= x35,6 <= 1
0 <= x36,9 <= 1
0 <= x36,10 <= 1
0 <= x36,11 <= 1
0 <= x36,12 <= 1
0 <= x36,13 <= 1
0 <= x36,14 <= 1
0 <= x36,15 <= 1
0 <= x37,8 <= 1
0 <= x37,9 <= 1
0 <= x37,10 <= 1
0 <= x37,11 <= 1
0 <= x37,12 <= 1
0 <= x37,13 <= 1
0 <= x37,14 <= 1
0 <= x38,6 <= 1
0 <= x39,5 <= 1
0 <= x40,3 <= 1
0 <= x41,1 <= 1
0 <= x42,7 <= 1
0 <= x42,8 <= 1
0 <= x42,9 <= 1
0 <= x42,10 <= 1
0 <= x42,11 <= 1
0 <= x42,12 <= 1
0 <= x42,13 <= 1
0 <= x42,14 <= 1
0 <= x42,15 <= 1
0 <= x43,6 <= 1
0 <= x43,7 <= 1
0 <= x43,8 <= 1
0 <= x43,9 <= 1
0 <= x43,10 <= 1
0 <= x43,11 <= 1
0 <= x43,12 <= 1
0 <= x43,13 <= 1
0 <= x43,14 <= 1
0 <= x44,4 <= 1
0 <= x44,5 <= 1
0 <= x44,6 <= 1
0 <= x45,7 <= 1
0 <= x45,8 <= 1
0 <= x45,9 <= 1
0 <= x45,10 <= 1
0 <= x45,11 <= 1
0 <= x45,12 <= 1
0 <= x45,13 <= 1
0 <= x45,14 <= 1
0 <= x45,15 <= 1
0 <= x46,6 <= 1
0 <= x46,7 <= 1
0 <= x46,8 <= 1
0 <= x46,9 <= 1
0 <= x46,10 <= 1
0 <= x46,11 <= 1
0 <= x46,12 <= 1
0 <= x46,13 <= 1
0 <= x46,14 <= 1
0 <= x47,4 <= 1
0 <= x47,5 <= 1
0 <= x47,6 <= 1
0 <= x48,3 <= 1
0 <= x48,4 <= 1
0 <= x48,5 <= 1
0 <= x49,1 <= 1
0 <= x49,2 <= 1
0 <= x49,3 <= 1
0 <= x50,13 <= 1
0 <= x50,14 <= 1
0 <= x51,14 <= 1
0 <= x52,15 <= 1
0 <= x53,14 <= 1
0 <= x54,13 <= 1
0 <= x55,12 <= 1
0 <= x56,11 <= 1
0 <= x57,13 <= 1
0 <= x57,14 <= 1
0 <= x58,14 <= 1
0 <= x59,15 <= 1
0 <= x60,14 <= 1
0 <= x61,13 <= 1
0 <= x62,12 <= 1
0 <= x63,11 <= 1
0 <= x64,10 <= 1
0 <= x65,8 <= 1
0 <= x66,13 <= 1
0 <= x66,14 <= 1
0 <= x67,14 <= 1
0 <= x68,15 <= 1
0 <= x69,14 <= 1
0 <= x70,13 <= 1
0 <= x71,12 <= 1
0 <= x72,11 <= 1
0 <= x73,13 <= 1
0 <= x73,14 <= 1
0 <= x74,14 <= 1
0 <= x75,15 <= 1
0 <= x76,14 <= 1
0 <= x77,13 <= 1
0 <= x78,12 <= 1
0 <= x79,11 <= 1
0 <= x80,10 <= 1
0 <= x81,8 <= 1
0 <= x82,9 <= 1
0 <= x82,10 <= 1
0 <= x82,11 <= 1
0 <= x82,12 <= 1
0 <= x82,13 <= 1
0 <= x82,14 <= 1
0 <= x82,15 <= 1
0 <= x83,8 <= 1
0 <= x83,9 <= 1
0 <= x83,10 <= 1
0 <= x83,11 <= 1
0 <= x83,12 <= 1
0 <= x83,13 <= 1
0 <= x83,14 <= 1
0 <= x84,6 <= 1
0 <= x85,9 <= 1
0 <= x85,10 <= 1
0 <= x85,11 <= 1
0 <= x85,12 <= 1
0 <= x85,13 <= 1
0 <= x85,14 <= 1
0 <= x85,15 <= 1
0 <= x86,8 <= 1
0 <= x86,9 <= 1
0 <= x86,10 <= 1
0 <= x86,11 <= 1
0 <= x86,12 <= 1
0 <= x86,13 <= 1
0 <= x86,14 <= 1
0 <= x87,6 <= 1
0 <= x88,5 <= 1
0 <= x89,3 <= 1
0 <= x90,1 <= 1
0 <= x91,7 <= 1
0 <= x91,8 <= 1
0 <= x91,9 <= 1
0 <= x91,10 <= 1
0 <= x91,11 <= 1
0 <= x91,12 <= 1
0 <= x91,13 <= 1
0 <= x91,14 <= 1
0 <= x91,15 <= 1
0 <= x92,6 <= 1
0 <= x92,7 <= 1
0 <= x92,8 <= 1
0 <= x92,9 <= 1
0 <= x92,10 <= 1
0 <= x92,11 <= 1
0 <= x92,12 <= 1
0 <= x92,13 <= 1
0 <= x92,14 <= 1
0 <= x93,4 <= 1
0 <= x93,5 <= 1
0 <= x93,6 <= 1
0 <= x94,7 <= 1
0 <= x94,8 <= 1
0 <= x94,9 <= 1
0 <= x94,10 <= 1
0 <= x94,11 <= 1
0 <= x94,12 <= 1
0 <= x94,13 <= 1
0 <= x94,14 <= 1
0 <= x94,15 <= 1
0 <= x95,6 <= 1
0 <= x95,7 <= 1
0 <= x95,8 <= 1
0 <= x95,9 <= 1
0 <= x95,10 <= 1
0 <= x95,11 <= 1
0 <= x95,12 <= 1
0 <= x95,13 <= 1
0 <= x95,14 <= 1
0 <= x96,4 <= 1
0 <= x96,5 <= 1
0 <= x96,6 <= 1
0 <= x97,3 <= 1
0 <= x97,4 <= 1
0 <= x97,5 <= 1
0 <= x98,1 <= 1
0 <= x98,2 <= 1
0 <= x98,3 <= 1
0 <= x99,13 <= 1
0 <= x99,14 <= 1
0 <= x100,14 <= 1
0 <= x101,15 <= 1
0 <= x102,14 <= 1
0 <= x103,13 <= 1
0 <= x104,12 <= 1
0 <= x105,11 <= 1
0 <= x106,13 <= 1
0 <= x106,14 <= 1
0 <= x107,14 <= 1
0 <= x108,15 <= 1
0 <= x109,14 <= 1
0 <= x110,13 <= 1
0 <= x111,12 <= 1
0 <= x112,11 <= 1
0 <= x113,10 <= 1
0 <= x114,8 <= 1
0 <= x115,13 <= 1
0 <= x115,14 <= 1
0 <= x116,14 <= 1
0 <= x117,15 <= 1
0 <= x118,14 <= 1
0 <= x119,13 <= 1
0 <= x120,12 <= 1
0 <= x121,11 <= 1
0 <= x122,13 <= 1
0 <= x122,14 <= 1
0 <= x123,14 <= 1
0 <= x124,15 <= 1
0 <= x125,14 <= 1
0 <= x126,13 <= 1
0 <= x127,12 <= 1
0 <= x128,11 <= 1
0 <= x129,10 <= 1
0 <= x130,8 <= 1
0 <= x131,9 <= 1
0 <= x131,10 <= 1
0 <= x131,11 <= 1
0 <= x131,12 <= 1
0 <= x131,13 <= 1
0 <= x131,14 <= 1
0 <= x131,15 <= 1
0 <= x132,8 <= 1
0 <= x132,9 <= 1
0 <= x132,10 <= 1
0 <= x132,11 <= 1
0 <= x132,12 <= 1
0 <= x132,13 <= 1
0 <= x132,14 <= 1
0 <= x133,6 <= 1
0 <= x134,9 <= 1
0 <= x134,10 <= 1
0 <= x134,11 <= 1
0 <= x134,12 <= 1
0 <= x134,13 <= 1
0 <= x134,14 <= 1
0 <= x134,15 <= 1
0 <= x135,8 <= 1
0 <= x135,9 <= 1
0 <= x135,10 <= 1
0 <= x135,11 <= 1
0 <= x135,12 <= 1
0 <= x135,13 <= 1
0 <= x135,14 <= 1
0 <= x136,6 <= 1
0 <= x137,5 <= 1
0 <= x138,3 <= 1
0 <= x139,1 <= 1
0 <= x140,7 <= 1
0 <= x140,8 <= 1
0 <= x140,9 <= 1
0 <= x140,10 <= 1
0 <= x140,11 <= 1
0 <= x140,12 <= 1
0 <= x140,13 <= 1
0 <= x140,14 <= 1
0 <= x140,15 <= 1
0 <= x141,6 <= 1
0 <= x141,7 <= 1
0 <= x141,8 <= 1
0 <= x141,9 <= 1
0 <= x141,10 <= 1
0 <= x141,11 <= 1
0 <= x141,12 <= 1
0 <= x141,13 <= 1
0 <= x141,14 <= 1
0 <= x142,4 <= 1
0 <= x142,5 <= 1
0 <= x142,6 <= 1
0 <= x143,7 <= 1
0 <= x143,8 <= 1
0 <= x143,9 <= 1
0 <= x143,10 <= 1
0 <= x143,11 <= 1
0 <= x143,12 <= 1
0 <= x143,13 <= 1
0 <= x143,14 <= 1
0 <= x143,15 <= 1
0 <= x144,6 <= 1
0 <= x144,7 <= 1
0 <= x144,8 <= 1
0 <= x144,9 <= 1
0 <= x144,10 <= 1
0 <= x144,11 <= 1
0 <= x144,12 <= 1
0 <= x144,13 <= 1
0 <= x144,14 <= 1
0 <= x145,4 <= 1
0 <= x145,5 <= 1
0 <= x145,6 <= 1
0 <= x146,3 <= 1
0 <= x146,4 <= 1
0 <= x146,5 <= 1
0 <= x147,1 <= 1
0 <= x147,2 <= 1
0 <= x147,3 <= 1
0 <= x148,13 <= 1
0 <= x148,14 <= 1
0 <= x149,14 <= 1
0 <= x150,15 <= 1
0 <= x151,14 <= 1
0 <= x152,13 <= 1
0 <= x153,12 <= 1
0 <= x154,11 <= 1
0 <= x155,13 <= 1
0 <= x155,14 <= 1
0 <= x156,14 <= 1
0 <= x157,15 <= 1
0 <= x158,14 <= 1
0 <= x159,13 <= 1
0 <= x160,12 <= 1
0 <= x161,11 <= 1
0 <= x162,10 <= 1
0 <= x163,8 <= 1
0 <= x164,13 <= 1
0 <= x164,14 <= 1
0 <= x165,14 <= 1
0 <= x166,15 <= 1
0 <= x167,14 <= 1
0 <= x168,13 <= 1
0 <= x169,12 <= 1
0 <= x170,11 <= 1
0 <= x171,13 <= 1
0 <= x171,14 <= 1
0 <= x172,14 <= 1
0 <= x173,15 <= 1
0 <= x174,14 <= 1
0 <= x175,13 <= 1
0 <= x176,12 <= 1
0 <= x177,11 <= 1
0 <= x178,10 <= 1
0 <= x179,8 <= 1
0 <= x180,9 <= 1
0 <= x180,10 <= 1
0 <= x180,11 <= 1
0 <= x180,12 <= 1
0 <= x180,13 <= 1
0 <= x180,14 <= 1
0 <= x180,15 <= 1
0 <= x181,8 <= 1
0 <= x181,9 <= 1
0 <= x181,10 <= 1
0 <= x181,11 <= 1
0 <= x181,12 <= 1
0 <= x181,13 <= 1
0 <= x181,14 <= 1
0 <= x182,6 <= 1
0 <= x183,9 <= 1
0 <= x183,10 <= 1
0 <= x183,11 <= 1
0 <= x183,12 <= 1
0 <= x183,13 <= 1
0 <= x183,14 <= 1
0 <= x183,15 <= 1
0 <= x184,8 <= 1
0 <= x184,9 <= 1
0 <= x184,10 <= 1
0 <= x184,11 <= 1
0 <= x184,12 <= 1
0 <= x184,13 <= 1
0 <= x184,14 <= 1
0 <= x185,6 <= 1
0 <= x186,5 <= 1
0 <= x187,3 <= 1
0 <= x188,1 <= 1
0 <= x189,7 <= 1
0 <= x189,8 <= 1
0 <= x189,9 <= 1
0 <= x189,10 <= 1
0 <= x189,11 <= 1
0 <= x189,12 <= 1
0 <= x189,13 <= 1
0 <= x189,14 <= 1
0 <= x189,15 <= 1
0 <= x190,6 <= 1
0 <= x190,7 <= 1
0 <= x190,8 <= 1
0 <= x190,9 <= 1
0 <= x190,10 <= 1
0 <= x190,11 <= 1
0 <= x190,12 <= 1
0 <= x190,13 <= 1
0 <= x190,14 <= 1
0 <= x191,4 <= 1
0 <= x191,5 <= 1
0 <= x191,6 <= 1
0 <= x192,7 <= 1
0 <= x192,8 <= 1
0 <= x192,9 <= 1
0 <= x192,10 <= 1
0 <= x192,11 <= 1
0 <= x192,12 <= 1
0 <= x192,13 <= 1
0 <= x192,14 <= 1
0 <= x192,15 <= 1
0 <= x193,6 <= 1
0 <= x193,7 <= 1
0 <= x193,8 <= 1
0 <= x193,9 <= 1
0 <= x193,10 <= 1
0 <= x193,11 <= 1
0 <= x193,12 <= 1
0 <= x193,13 <= 1
0 <= x193,14 <= 1
0 <= x194,4 <= 1
0 <= x194,5 <= 1
0 <= x194,6 <= 1
0 <= x195,3 <= 1
0 <= x195,4 <= 1
0 <= x195,5 <= 1
0 <= x196,1 <= 1
0 <= x196,2 <= 1
0 <= x196,3 <= 1
M1 >= 1
M2 >= 1
Generals
x0,1
x0,2
x0,3
x0,4
x0,5
x0,6
x0,7
x0,8
x0,9
x0,10
x0,11
x0,12
x0,13
x0,14
x1,13
x1,14
x2,14
x3,15
x4,14
x5,13
x6,12
x7,11
x8,13
x8,14
x9,14
x10,15
x11,14
x12,13
x13,12
x14,11
x15,10
x16,8
x17,13
x17,14
x18,14
x19,15
x20,14
x21,13
x22,12
x23,11
x24,13
x24,14
x25,14
x26,15
x27,14
x28,13
x29,12
x30,11
x31,10
x32,8
x33,9
x33,10
x33,11
x33,12
x33,13
x33,14
x33,15
x34,8
x34,9
x34,10
x34,11
x34,12
x34,13
x34,14
x35,6
x36,9
x36,10
x36,11
x36,12
x36,13
x36,14
x36,15
x37,8
x37,9
x37,10
x37,11
x37,12
x37,13
x37,14
x38,6
x39,5
x40,3
x41,1
x42,7
x42,8
x42,9
x42,10
x42,11
x42,12
x42,13
x42,14
x42,15
x43,6
x43,7
x43,8
x43,9
x43,10
x43,11
x43,12
x43,13
x43,14
x44,4
x44,5
x44,6
x45,7
x45,8
x45,9
x45,10
x45,11
x45,12
x45,13
x45,14
x45,15
x46,6
x46,7
x46,8
x46,9
x46,10
x46,11
x46,12
x46,13
x46,14
x47,4
x47,5
x47,6
x48,3
x48,4
x48,5
x49,1
x49,2
x49,3
x50,13
x50,14
x51,14
x52,15
x53,14
x54,13
x55,12
x56,11
x57,13
x57,14
x58,14
x59,15
x60,14
x61,13
x62,12
x63,11
x64,10
x65,8
x66,13
x66,14
x67,14
x68,15
x69,14
x70,13
x71,12
x72,11
x73,13
x73,14
x74,14
x75,15
x76,14
x77,13
x78,12
x79,11
x80,10
x81,8
x82,9
x82,10
x82,11
x82,12
x82,13
x82,14
x82,15
x83,8
x83,9
x83,10
x83,11
x83,12
x83,13
x83,14
x84,6
x85,9
x85,10
x85,11
x85,12
x85,13
x85,14
x85,15
x86,8
x86,9
x86,10
x86,11
x86,12
x86,13
x86,14
x87,6
x88,5
x89,3
x90,1
x91,7
x91,8
x91,9
x91,10
x91,11
x91,12
x91,13
x91,14
x91,15
x92,6
x92,7
x92,8
x92,9
x92,10
x92,11
x92,12
x92,13
x92,14
x93,4
x93,5
x93,6
x94,7
x94,8
x94,9
x94,10
x94,11
x94,12
x94,13
x94,14
x94,15
x95,6
x95,7
x95,8
x95,9
x95,10
x95,11
x95,12
x95,13
x95,14
x96,4
x96,5
x96,6
x97,3
x97,4
x97,5
x98,1
x98,2
x98,3
x99,13
x99,14
x100,14
x101,15
x102,14
x103,13
x104,12
x105,11
x106,13
x106,14
x107,14
x108,15
x109,14
x110,13
x111,12
x112,11
x113,10
x114,8
x115,13
x115,14
x116,14
x117,15
x118,14
x119,13
x120,12
x121,11
x122,13
x122,14
x123,14
x124,15
x125,14
x126,13
x127,12
x128,11
x129,10
x130,8
x131,9
x131,10
x131,11
x131,12
x131,13
x131,14
x131,15
x132,8
x132,9
x132,10
x132,11
x132,12
x132,13
x132,14
x133,6
x134,9
x134,10
x134,11
x134,12
x134,13
x134,14
x134,15
x135,8
x135,9
x135,10
x135,11
x135,12
x135,13
x135,14
x136,6
x137,5
x138,3
x139,1
x140,7
x140,8
x140,9
x140,10
x140,11
x140,12
x140,13
x140,14
x140,15
x141,6
x141,7
x141,8
x141,9
x141,10
x141,11
x141,12
x141,13
x141,14
x142,4
x142,5
x142,6
x143,7
x143,8
x143,9
x143,10
x143,11
x143,12
x143,13
x143,14
x143,15
x144,6
x144,7
x144,8
x144,9
x144,10
x144,11
x144,12
x144,13
x144,14
x145,4
x145,5
x145,6
x146,3
x146,4
x146,5
x147,1
x147,2
x147,3
x148,13
x148,14
x149,14
x150,15
x151,14
x152,13
x153,12
x154,11
x155,13
x155,14
x156,14
x157,15
x158,14
x159,13
x160,12
x161,11
x162,10
x163,8
x164,13
x164,14
x165,14
x166,15
x167,14
x168,13
x169,12
x170,11
x171,13
x171,14
x172,14
x173,15
x174,14
x175,13
x176,12
x177,11
x178,10
x179,8
x180,9
x180,10
x180,11
x180,12
x180,13
x180,14
x180,15
x181,8
x181,9
x181,10
x181,11
x181,12
x181,13
x181,14
x182,6
x183,9
x183,10
x183,11
x183,12
x183,13
x183,14
x183,15
x184,8
x184,9
x184,10
x184,11
x184,12
x184,13
x184,14
x185,6
x186,5
x187,3
x188,1
x189,7
x189,8
x189,9
x189,10
x189,11
x189,12
x189,13
x189,14
x189,15
x190,6
x190,7
x190,8
x190,9
x190,10
x190,11
x190,12
x190,13
x190,14
x191,4
x191,5
x191,6
x192,7
x192,8
x192,9
x192,10
x192,11
x192,12
x192,13
x192,14
x192,15
x193,6
x193,7
x193,8
x193,9
x193,10
x193,11
x193,12
x193,13
x193,14
x194,4
x194,5
x194,6
x195,3
x195,4
x195,5
x196,1
x196,2
x196,3
M1
M2
End
